!File created by the GAMESS Input Deck Generator Plugin for Avogadro
 $BASIS GBASIS=STO NGAUSS=3 $END
 $CONTRL SCFTYP=RHF RUNTYP=OPTIMIZE NZVAR=1 mult=1  ICHARG=0 $END
 $STATPT hssend=.t. OPTTOL=0.0005 NSTEP=50 $END
 $STATPT HESS=calc ihrep=5 $END
 $FORCE nvib=2 $END
 $ZMAT DLC=.t. auto=.t. nonvdw(1)=1,6,3,4 $END
 $ZMAT IFZMAT(1)=1,1,6,1,3,4 fvalue(1)=2.00,2.00 $END

 $DATA 
Title
C1
C     6.0    -4.45709     0.44326    -0.78471
C     6.0    -5.40973     0.64649     0.16087
C     6.0    -5.53238     1.99339     0.81835
C     6.0    -3.72207     2.37931     1.57149
C     6.0    -2.95166     1.11568     1.30505
C     6.0    -2.66168     0.85579     0.00064
C     6.0    -2.14299     2.01341    -0.76809
C     6.0    -2.39349     3.28756    -0.43293
C     6.0    -3.22971     3.56538     0.76319
O     8.0    -3.53318     4.72506     1.03571
H     1.0    -4.32936    -0.57022    -1.17342
H     1.0    -4.29482     1.26716    -1.48839
H     1.0    -5.84813    -0.20396     0.67692
H     1.0    -5.76319     2.82115     0.14326
H     1.0    -6.17551     1.97742     1.70207
H     1.0    -3.87602     2.61554     2.62654
H     1.0    -3.00929     0.30862     2.02873
H     1.0    -2.21315    -0.11249    -0.24923
H     1.0    -1.52271     1.78424    -1.63075
H     1.0    -2.01910     4.13612    -0.98909
 $END
