!File created by the GAMESS Input Deck Generator Plugin for Avogadro
 $BASIS GBASIS=STO NGAUSS=3 $END
 $CONTRL SCFTYP=RHF RUNTYP=SADPOINT $END
 $STATPT hssend=.t. OPTTOL=0.0005 NSTEP=50 $END
 $STATPT HESS=calc ihrep=5 $END
 $FORCE nvib=2 $END
 $ZMAT DLC=.t. auto=.t. nonvdw(1)=1,6,3,4,4,5,5,6,1,2,2,3 $END
!$ZMAT IFZMAT(1)=1,1,6,1,3,4 fvalue(1)=2.00,2.00 $END

 $DATA 
Title
C1
C     6.0    -4.41375494     0.41368452    -0.79797339
C     6.0    -5.38505697     0.71951652     0.16215333
C     6.0    -5.45218325     2.01380038     0.69080871
C     6.0    -3.69270754     2.33671188     1.58522081
C     6.0    -2.95578814     1.16498435     1.37413192
C     6.0    -2.65066171     0.83978283     0.04460699
C     6.0    -2.23500705     2.00076604    -0.82132632
C     6.0    -2.50073910     3.24746108    -0.48733148
C     6.0    -3.25911140     3.56936169     0.77977753
O     8.0    -3.51320148     4.71272993     1.13463712
H     1.0    -4.31011438    -0.62385702    -1.09817052
H     1.0    -4.28912067     1.10257685    -1.62444234
H     1.0    -5.72600365    -0.09059576     0.79637188
H     1.0    -5.38735533     2.84160566    -0.00534290
H     1.0    -6.15455866     2.19979787     1.49624062
H     1.0    -3.99061608     2.57349181     2.60255337
H     1.0    -3.00154972     0.37338933     2.11205387
H     1.0    -2.10261583    -0.07873528    -0.14156972
H     1.0    -1.70225859     1.76565981    -1.73630834
H     1.0    -2.17775917     4.08688116    -1.08895767
 $END
