!File created by the GAMESS Input Deck Generator Plugin for Avogadro
 $BASIS GBASIS=STO NGAUSS=3 $END
 $CONTRL SCFTYP=RHF RUNTYP=OPTIMIZE NZVAR=1 mult=1  ICHARG=0 $END
 $STATPT hssend=.t. OPTTOL=0.0005 NSTEP=50 $END
 $STATPT HESS=calc ihrep=5 $END
 $FORCE nvib=2 $END
 $ZMAT DLC=.t. auto=.t. nonvdw(1)=1,6,3,4 $END
 $ZMAT IFZMAT(1)=1,1,6,1,3,4 fvalue(1)=2.00,2.00 $END

 $DATA 
Title
C1
C     6.0    -4.38398409     0.41325399    -0.78149301
C     6.0    -5.38088799     0.72404200     0.16004600
C     6.0    -5.42279005     2.01979804     0.70109099
C     6.0    -3.72506094     2.32850289     1.57036996
C     6.0    -2.95976901     1.16690004     1.37017000
C     6.0    -2.68230700     0.83436501     0.03057900
C     6.0    -2.25101209     2.00248599    -0.82817900
C     6.0    -2.50645995     3.24837494    -0.48740000
C     6.0    -3.26606488     3.56789804     0.78047103
O     8.0    -3.50149298     4.70952797     1.15031302
H     1.0    -4.29324722    -0.62701398    -1.07775795
H     1.0    -4.27533102     1.08686197    -1.62348294
H     1.0    -5.72930479    -0.08401300     0.79298103
H     1.0    -5.37018490     2.84326601    -0.00194200
H     1.0    -6.13870001     2.20735598     1.49455297
H     1.0    -4.01099920     2.56746888     2.59105206
H     1.0    -2.99533510     0.37775901     2.11121798
H     1.0    -2.11577702    -0.07443100    -0.15100101
H     1.0    -1.71733797     1.76736295    -1.74267995
H     1.0    -2.17411900     4.08924818    -1.08177400
 $END
