!File created by the GAMESS Input Deck Generator Plugin for Avogadro
 $BASIS GBASIS=STO NGAUSS=3 $END
 $CONTRL SCFTYP=RHF RUNTYP=OPTIMIZE NZVAR=1 mult=1  ICHARG=0 $END
 $STATPT hssend=.t. OPTTOL=0.0005 NSTEP=50 $END
 $STATPT HESS=calc ihrep=5 $END
 $FORCE nvib=2 $END
 $ZMAT DLC=.t. auto=.t. nonvdw(1)=6,16,9,16 $END
 $ZMAT IFZMAT(1)=1,6,16,1,9,16 fvalue(1)=3.97,4.01 $END

 $DATA 
Title
C1
C     6.0    -1.93591     2.94461    -0.01066
C     6.0    -0.67939     2.07950    -0.19180
C     6.0    -3.08379     1.93892     0.16532
H     1.0    -2.05054     3.58393    -0.91315
H     1.0    -1.89580     3.58812     0.89521
C     6.0    -2.50724     0.61384    -0.30650
H     1.0    -4.05260     2.24731    -0.28082
H     1.0    -3.24853     1.81575     1.26136
C     6.0    -1.09869     0.69383     0.27183
H     1.0     0.24731     2.49523     0.25668
H     1.0    -0.50161     1.98266    -1.28844
H     1.0    -2.45517     0.60143    -1.41940
H     1.0    -3.08989    -0.26736     0.03636
H     1.0    -1.14857     0.66872     1.38462
H     1.0    -0.41813    -0.11178    -0.07623
Br    35.0    -1.70087    -3.26176    -0.04496
H     1.0    -0.25699    -2.77771     0.08951
 $END
