!File created by the GAMESS Input Deck Generator Plugin for Avogadro
 $BASIS GBASIS=STO NGAUSS=3 $END
 $CONTRL SCFTYP=RHF RUNTYP=OPTIMIZE NZVAR=1 mult=1  ICHARG=0 $END
 $STATPT hssend=.t. OPTTOL=0.0005 NSTEP=50 $END
 $STATPT HESS=calc ihrep=5 $END
 $FORCE nvib=2 $END
 $ZMAT DLC=.t. auto=.t. nonvdw(1)=2,12,3,13,17,2,2,3 $END
 $ZMAT IFZMAT(1)=1,2,12,1,3,13 fvalue(1)=2.00,2.00 $END

 $DATA 
Title
C1
C     6.0    -1.04587    -0.60507    -0.71568
C     6.0    -1.64305     0.51426     0.17771
C     6.0    -0.50044     1.15686     0.80586
C     6.0     0.76891     0.68868     0.15383
C     6.0     0.38406    -0.73986    -0.18366
H     1.0    -1.03826    -0.28924    -1.78114
H     1.0    -1.57250    -1.57985    -0.63801
H     1.0     1.66857     0.77235     0.79888
H     1.0     0.93020     1.24984    -0.79350
H     1.0     0.33897    -1.30405     0.77768
H     1.0     1.08076    -1.27196    -0.86507
B     5.0    -2.08258     1.98242    -0.86243
H     1.0    -0.97711     2.40150    -0.12092
H     1.0    -1.90209     1.91489    -2.03422
H     1.0    -3.07977     2.57552    -0.60886
H     1.0    -0.54468     1.65179     1.77864
C     6.0    -2.88679     0.23507     1.07946
H     1.0    -3.13480    -0.84605     1.05049
H     1.0    -3.79278     0.78816     0.75541
H     1.0    -2.67864     0.50513     2.13630
 $END
