!File created by the GAMESS Input Deck Generator Plugin for Avogadro
 $BASIS GBASIS=STO NGAUSS=3 $END
 $CONTRL SCFTYP=RHF RUNTYP=SADPOINT $END
 $STATPT hssend=.t. OPTTOL=0.0005 NSTEP=50 $END
 $STATPT HESS=calc ihrep=5 $END
 $FORCE nvib=2 $END
 $ZMAT DLC=.t. auto=.t. nonvdw(1)=2,12,3,13,17,2,2,3 $END
!$ZMAT IFZMAT(1)=1,2,12,1,3,13 fvalue(1)=2.00,2.00 $END
 $DATA 
Title
C1
C     6.0    -1.07305443    -0.85951573    -0.36702839
C     6.0    -1.66045189     0.34879062     0.37893319
C     6.0    -0.67190856     1.22730994     0.71058416
C     6.0     0.70794111     0.71002722     0.29808000
C     6.0     0.38712975    -0.44634485    -0.68464279
H     1.0    -1.64094198    -1.11308169    -1.25877941
H     1.0    -1.10229540    -1.71916223     0.30267203
H     1.0     1.21571958     0.34078348     1.18922830
H     1.0     1.32948256     1.48154831    -0.14891417
H     1.0     1.07693505    -1.27765179    -0.56848186
H     1.0     0.45776147    -0.09071622    -1.70844209
B     5.0    -1.61247027     1.96470499    -0.79857200
H     1.0    -0.67211056     2.62669873    -0.71830040
H     1.0    -1.64838207     1.34378505    -1.77014732
H     1.0    -2.58059239     2.48036218    -0.44325945
H     1.0    -0.78177726     2.00779366     1.45413399
C     6.0    -3.05734158     0.26744527     0.98342031
H     1.0    -3.09647775    -0.57990307     1.66569519
H     1.0    -3.80419612     0.11557226     0.20920716
H     1.0    -3.29800344     1.17203939     1.53174639
 $END
