!File created by the GAMESS Input Deck Generator Plugin for Avogadro
 $BASIS GBASIS=STO NGAUSS=3 $END
 $CONTRL SCFTYP=RHF RUNTYP=OPTIMIZE NZVAR=1 mult=1  ICHARG=0 $END
 $STATPT hssend=.t. OPTTOL=0.0005 NSTEP=50 $END
 $STATPT HESS=calc ihrep=5 $END
 $FORCE nvib=2 $END
 $ZMAT DLC=.t. auto=.t. nonvdw(1)=1,7,4,6,1,4 $END
 $ZMAT IFZMAT(1)=1,1,7,1,4,6,1,1,4 fvalue(1)=2.08,2.01,1.98 $END

 $DATA 
Title
C1
B     5.0     0.48761    -0.88093     1.87254
H     1.0     0.97164    -0.91570     2.95153
H     1.0    -0.37853    -1.66570     1.68061
H     1.0     0.26383     0.91512     1.06188
C     6.0     0.49508     0.58287    -1.45972
C     6.0     1.53703     0.37169    -0.39256
C     6.0     1.76703    -0.81564     0.23489
C     6.0     3.17547    -0.75477     0.82258
C     6.0     3.79255     0.41391     0.05470
C     6.0     2.61337     1.36081    -0.06288
H     1.0    -0.13803    -0.32096    -1.58433
H     1.0     0.99701     0.80384    -2.42451
H     1.0    -0.15534     1.44093    -1.19100
H     1.0     1.27751    -1.71783    -0.18042
H     1.0     3.76136    -1.68794     0.68585
H     1.0     3.13047    -0.50175     1.90391
H     1.0     4.04880     0.06237    -0.97264
H     1.0     4.70596     0.84312     0.51805
H     1.0     2.74730     2.17272    -0.80875
H     1.0     2.41678     1.80022     0.94080
 $END
