!File created by the GAMESS Input Deck Generator Plugin for Avogadro
 $BASIS GBASIS=STO NGAUSS=3 $END
 $CONTRL SCFTYP=RHF RUNTYP=IRC $END
 $STATPT HESS=READ ihrep=5 $END
 $irc npoint=100 saddle=.t. tsengy=.t. forwrd=.f. opttol=0.0005 stride=0.1 $end

 $DATA 
Title
C1
C     6.0    -4.38398409     0.41325399    -0.78149301
C     6.0    -5.38088799     0.72404200     0.16004600
C     6.0    -5.42279005     2.01979804     0.70109099
C     6.0    -3.72506094     2.32850289     1.57036996
C     6.0    -2.95976901     1.16690004     1.37017000
C     6.0    -2.68230700     0.83436501     0.03057900
C     6.0    -2.25101209     2.00248599    -0.82817900
C     6.0    -2.50645995     3.24837494    -0.48740000
C     6.0    -3.26606488     3.56789804     0.78047103
O     8.0    -3.50149298     4.70952797     1.15031302
H     1.0    -4.29324722    -0.62701398    -1.07775795
H     1.0    -4.27533102     1.08686197    -1.62348294
H     1.0    -5.72930479    -0.08401300     0.79298103
H     1.0    -5.37018490     2.84326601    -0.00194200
H     1.0    -6.13870001     2.20735598     1.49455297
H     1.0    -4.01099920     2.56746888     2.59105206
H     1.0    -2.99533510     0.37775901     2.11121798
H     1.0    -2.11577702    -0.07443100    -0.15100101
H     1.0    -1.71733797     1.76736295    -1.74267995
H     1.0    -2.17411900     4.08924818    -1.08177400
 $END

 $HESS
ENERGY IS     -416.0920673035 E(NUC) IS      508.0224031169
 1  1 1.80755612E-01-9.39591703E-02-2.77502851E-01-1.60870554E-01-6.84372642E-02
 1  2 9.94206346E-02 1.04683604E-01 1.26326200E-01 9.56488464E-02-1.55789283E-01
 1  3 5.79081353E-02-3.78324987E-02 5.09943631E-02-1.16100075E-01-1.40709032E-01
 1  4 1.24065966E-01 8.81320451E-02 1.81857476E-01-3.17654593E-02-3.06545872E-02
 1  5-2.60660261E-03-7.31354932E-03 1.00923488E-02 7.58179787E-04 1.17453221E-02
 1  6 4.23409802E-04 7.26961594E-03-2.23611339E-03 3.12108839E-03-2.07327053E-03
 1  7-5.13132162E-02 3.90582652E-02 2.80328242E-02-2.80725040E-02-1.07169568E-02
 1  8 5.82516118E-02-3.21085554E-03 8.52913213E-03 3.83729139E-03-2.06484728E-02
 1  9-4.51796990E-03-7.71527418E-03-1.22344893E-03-1.08843656E-03-1.72045405E-03
 1 10 7.58009447E-03 2.03500364E-03 1.34881876E-03 1.73943272E-04-6.69708576E-04
 1 11 2.03497609E-03-2.21619043E-02-1.00018572E-02-1.03804842E-02 1.46973151E-03
 1 12 3.35569284E-04 4.63417689E-04 3.13467026E-03 1.83630245E-04 1.61782274E-03
 2  1-9.39591703E-02 8.95592338E-01-1.84681643E-02 6.80905349E-02-1.73086945E-01
 2  2-6.05689445E-02 3.73217487E-02-1.95299591E-03-3.31403086E-02-5.80452411E-03
 2  3 1.64493704E-03-4.88201122E-03 3.83144564E-03-9.34700125E-03-1.09767264E-02
 2  4 1.32581133E-02-3.57718459E-02 1.44822246E-02-1.54472521E-02-9.23634430E-03
 2  5-4.46199652E-03-1.22852110E-03 3.10960624E-04 1.64146247E-04-6.67481719E-04
 2  6-7.10977292E-04 1.47204658E-04 2.29287130E-04 5.16223259E-04-3.20558897E-05
 2  7 2.43342790E-02-4.43216331E-01-9.92302778E-02-1.28902936E-02-2.36319068E-01
 2  8 1.94452841E-01-2.28415572E-02 1.24501475E-02 2.24188473E-02-1.08742286E-03
 2  9 1.98565366E-03 2.41854819E-04-2.19342932E-03-7.41051024E-03-3.79468726E-03
 2 10-7.54559142E-04 3.64158505E-04 3.09853795E-04-8.55155578E-04 4.38418489E-04
 2 11-6.39970958E-04 9.26508251E-03 2.97252685E-03 3.41515204E-03 5.11648513E-04
 2 12 3.69837216E-04 3.19736800E-04 8.87304985E-04 4.07287562E-04 2.43802945E-04
 3  1-2.77502851E-01-1.84681643E-02 7.89683186E-01 2.07407218E-01-2.37678318E-02
 3  2-3.02304555E-01-2.95831951E-04-2.41682704E-02-2.02824089E-02 1.53762359E-02
 3  3-2.81026627E-03 2.47939289E-03-8.49064387E-03-7.47908455E-03-9.58617206E-03
 3  4 6.70101175E-04 3.20766037E-03-3.61300829E-02 1.25915779E-03-5.25582610E-03
 3  5 4.08693033E-03-1.30573111E-03 2.67444496E-03 9.83766357E-04-4.73730463E-04
 3  6-7.23890240E-04-3.91929168E-03-5.09024201E-04 1.03511979E-03 1.08337383E-03
 3  7 1.40620284E-02-9.44444882E-02-1.06326113E-01 2.77434856E-02 1.85576126E-01
 3  8-3.12335329E-01 2.09433168E-02-1.42720205E-02-1.02330012E-02-2.10966749E-03
 3  9-1.40221362E-03 7.74171022E-05 4.60503099E-03-2.29354906E-03 2.67026908E-03
 3 10-1.46009036E-03 5.67823234E-04 6.67503397E-04-3.72568971E-04 1.29386389E-03
 3 11-7.12913875E-04 7.23339461E-04 1.38423835E-04 1.78133251E-04 6.42855519E-05
 3 12 6.64248941E-04-4.85886070E-04-3.33775757E-04-7.14214392E-05 4.06439966E-04
 4  1-1.60870554E-01 6.80905349E-02 2.07407218E-01 4.56885575E-01 5.61602828E-02
 4  2-2.84896551E-01-1.26955002E-01-2.55721100E-02 1.31493023E-02 4.51061001E-02
 4  3-1.80674548E-02 1.10397245E-02-5.23874698E-02 2.94421457E-02 3.73095407E-02
 4  4-7.94858546E-02-3.46773407E-02-7.62315857E-02 7.29676600E-03 6.09379303E-03
 4  5 7.94937111E-04 2.18390966E-03-2.42580168E-03 3.12192580E-04-3.13664589E-03
 4  6-1.57252091E-03-2.59821186E-03 1.84407424E-04-1.28230722E-03 9.11875775E-04
 4  7-2.85065036E-05-6.63345995E-03-5.42796897E-03-1.50572960E-02-2.09353689E-03
 4  8-9.03243300E-03-9.51688829E-02-9.45217064E-02 9.22413876E-02 9.71921819E-03
 4  9-2.48314577E-03-1.15503273E-03 8.72317641E-03 3.00998267E-02 1.24856729E-02
 4 10-2.26807598E-03-1.22579960E-03-8.80231291E-04 2.31162863E-03-1.38053153E-03
 4 11 2.65053314E-03 4.53246690E-03 2.10594178E-03 2.48101824E-03-4.56850180E-04
 4 12-6.06808316E-05-6.88280993E-05-1.12829797E-03 3.54317197E-06-4.94009654E-04
 5  1-6.84372642E-02-1.73086945E-01-2.37678318E-02 5.61602828E-02 8.64377346E-01
 5  2-5.51966025E-02 1.10442532E-01-3.92844949E-01-5.33229187E-02-1.30749698E-01
 5  3 2.72941844E-02-3.81466237E-02 4.62523480E-02-6.27312660E-02-6.42549187E-02
 5  4 7.14406630E-02 3.47944717E-02 8.09834068E-02-8.05770605E-03-6.51954210E-03
 5  5 3.36379033E-04-3.22036143E-03 2.83997820E-03-6.23055684E-04 8.89372277E-03
 5  6 4.06989850E-03 4.83211192E-03-1.27914340E-03 5.18296105E-04-1.74252766E-03
 5  7 3.83117409E-02 1.44539566E-03-2.40784036E-02-1.10517824E-02 1.77928200E-02
 5  8 2.46194986E-02-7.95130101E-02-2.93975454E-01 1.76229849E-01-2.11851931E-02
 5  9-2.45208189E-02-2.64537770E-02-1.17557976E-02 1.35389173E-03-9.27168977E-04
 5 10 6.73083728E-03 1.46251164E-03 1.43978621E-03 4.16497648E-04-3.14706004E-04
 5 11 9.76864908E-04-5.11620123E-03-1.71372391E-03-1.73598949E-03 5.28796040E-04
 5 12-2.40517348E-04 2.74603130E-04 1.18763473E-03-2.35089549E-06 5.57660678E-04
 6  1 9.94206346E-02-6.05689445E-02-3.02304555E-01-2.84896551E-01-5.51966025E-02
 6  2 6.36229593E-01 1.14961605E-01-2.92174564E-02-1.14626039E-01-1.15422049E-01
 6  3 1.84980381E-02-3.55770058E-02 1.97734852E-02-7.04560750E-02-6.22026378E-02
 6  4 6.55806543E-02 3.57090236E-02 8.22997183E-02-7.52038343E-03-4.40833010E-03
 6  5-1.51868264E-03-2.42144496E-03 1.66464433E-03 7.29806510E-06 6.92536658E-03
 6  6 5.51170011E-03 2.69486429E-03-5.79289289E-04-6.01249126E-04-1.10303365E-03
 6  7 1.23661082E-02 3.39426933E-03 5.32518699E-04 4.06604179E-02-5.25501719E-03
 6  8-4.80235861E-03 7.80070372E-02 1.65796974E-01-2.05234217E-01-1.51209406E-02
 6  9 2.62091863E-02 1.28811438E-02-1.21293974E-02-2.86927337E-02-8.46604333E-03
 6 10 3.90665985E-03 9.82471521E-04 1.35742178E-03 1.63960835E-03 6.25309408E-05
 6 11 1.47018220E-03-6.55555312E-03-3.08607166E-03-2.58983142E-03 3.87571373E-04
 6 12-3.73869370E-04 5.28872733E-04 1.01542737E-03 2.64464854E-05 4.23673727E-04
 7  1 1.04683604E-01 3.73217487E-02-2.95831951E-04-1.26955002E-01 1.10442532E-01
 7  2 1.14961605E-01 3.40656801E-01-1.71071799E-01-3.63255950E-01 1.18989415E-01
 7  3-3.31640110E-02 4.22821241E-02-8.01579892E-02 8.19832205E-02 6.21768963E-02
 7  4-5.29509132E-02-2.73322902E-02-8.32985411E-02 7.16592230E-03 1.57621059E-03
 7  5 1.17091624E-03 3.34526531E-03-1.25505406E-04 1.57411255E-03-2.51145504E-02
 7  6-2.44517607E-02-6.91028089E-03 5.39047868E-04 6.27417803E-03 2.88326894E-03
 7  7-3.49578857E-03 1.16650964E-03 5.58365244E-03-1.35418951E-02-5.35289200E-03
 7  8-6.56316383E-03 4.16995570E-03-1.00534191E-02-4.74727731E-03-4.55038919E-02
 7  9-1.01396542E-02 3.64023774E-02-2.27795807E-01 4.29762411E-02 2.00039923E-01
 7 10-6.62947552E-03-8.07174868E-04-7.76166419E-04-7.47270733E-04-9.55878432E-04
 7 11-8.44491358E-04 5.00170010E-03 1.68597567E-03 1.10724811E-03-8.47830879E-04
 7 12 1.62218712E-04-5.02591267E-04-8.10134052E-04-1.33583683E-04-9.88589869E-04
 8  1 1.26326200E-01-1.95299591E-03-2.41682704E-02-2.55721100E-02-3.92844949E-01
 8  2-2.92174564E-02-1.71071799E-01 8.49984688E-01-8.76831586E-02 1.29812912E-01
 8  3-6.39885872E-02 3.84660429E-02-4.93656058E-02 6.75207975E-02 5.47963066E-02
 8  4-5.89688711E-02-3.67865587E-02-8.72207290E-02 8.68462654E-03 5.04673333E-03
 8  5 3.34186962E-03 4.64235230E-03-1.61322695E-03 9.77466752E-04-2.05181552E-02
 8  6-1.29704911E-02-1.18722185E-02 1.27747244E-04-6.54880642E-05 3.68261226E-03
 8  7-3.76862171E-03-1.03374861E-04-2.90113007E-03-1.00345330E-02-2.74118692E-03
 8  8-5.44434156E-03 1.93648316E-03-2.10380109E-02-2.34817627E-02 1.85299488E-02
 8  9-2.96137918E-01 2.06531773E-01 5.60358552E-02-9.18413363E-02-3.71182075E-02
 8 10-9.13207322E-03-2.00993936E-03-2.12802873E-03-2.88750747E-04-1.83292474E-03
 8 11 1.37124024E-03 5.18362033E-03 3.30815367E-03 3.08082834E-03-7.77399955E-04
 8 12 1.31396869E-04-3.85805976E-04-1.78147678E-03-6.48995826E-05-6.28525364E-04
 9  1 9.56488464E-02-3.31403086E-02-2.02824089E-02 1.31493023E-02-5.33229187E-02
 9  2-1.14626039E-01-3.63255950E-01-8.76831586E-02 6.78951372E-01 1.25584591E-01
 9  3-2.45938415E-02-1.08439802E-02-5.72771059E-02 6.28777003E-02 4.84784756E-02
 9  4-4.12115389E-02-2.93230892E-02-7.33376995E-02 5.91636097E-03-7.94607636E-04
 9  5 3.31135800E-03 1.77362115E-04-8.25276486E-04 7.44300765E-04-6.66566776E-03
 9  6-8.82326294E-03 4.20368756E-04-4.90344144E-04 2.42655994E-03 1.16734531E-03
 9  7 5.82649364E-03-3.13076997E-04-1.81113057E-03-1.24679154E-02-3.79094765E-03
 9  8-3.34238691E-03-2.43448235E-03 2.69738907E-02 1.36794144E-02 3.66603001E-02
 9  9 1.95363759E-01-2.38586168E-01 2.16259635E-01-4.21915134E-02-2.80158691E-01
 9 10-1.95238935E-02-4.45680110E-03-6.01837952E-03 4.76688061E-04-1.19205600E-03
 9 11 7.00818166E-04 4.83790153E-03 2.83062862E-03 2.15591818E-03-6.05323661E-04
 9 12 5.66916331E-05-3.20034677E-04-6.04643638E-04-7.83311707E-05-2.83858699E-04
10  1-1.55789283E-01-5.80452411E-03 1.53762359E-02 4.51061001E-02-1.30749698E-01
10  2-1.15422049E-01 1.18989415E-01 1.29812912E-01 1.25584591E-01 1.93412132E-01
10  3-1.32641946E-01-2.73869912E-01-9.85026342E-02 8.17024981E-02-3.70420700E-02
10  4 6.15565348E-02 5.28556844E-02 1.34552232E-01-1.35317989E-02 5.30724085E-03
10  5-1.13112183E-02 6.08803985E-03-1.56327173E-02 9.42209891E-03-8.95480780E-02
10  6-1.28145207E-02 5.87370265E-02 2.17885292E-02 2.03632953E-03-7.84622372E-03
10  7 4.37448260E-03-9.42031002E-05 3.05842396E-03 1.39508860E-02 5.26653326E-03
10  8 6.60678674E-03 7.92420068E-04 1.65757440E-03 2.82393465E-04-2.58059240E-02
10  9-4.57339698E-03-1.02713869E-02-1.85606853E-02-1.93829002E-03-1.52309218E-02
10 10-7.15261874E-02 3.14761048E-02 1.12472765E-01 7.27389619E-03-5.72498430E-03
10 11 2.39404189E-03-1.61272991E-03-1.39743498E-03-4.39099686E-04 4.32851280E-04
10 12-2.16136066E-04-3.97822109E-04 1.11121688E-03 1.47315651E-03 3.34577840E-03
11  1 5.79081353E-02 1.64493704E-03-2.81026627E-03-1.80674548E-02 2.72941844E-02
11  2 1.84980381E-02-3.31640110E-02-6.39885872E-02-2.45938415E-02-1.32641946E-01
11  3 7.77042060E-01 7.71241132E-02 1.46132709E-01-3.61098349E-01 1.44627879E-02
11  4-2.24179461E-02-2.39608500E-02-6.59817788E-02 1.77776308E-03-2.31897209E-03
11  5 1.04552159E-03 1.37643934E-03 9.12128022E-03-1.97513474E-03-5.17929597E-02
11  6-1.82260437E-01 5.30370196E-02-7.31701776E-03-7.25514068E-02 1.89470990E-02
11  7-2.93869674E-03 1.04440193E-03-7.00455017E-04-6.92537231E-03-2.53955376E-03
11  8-2.10500744E-03-1.12254599E-03-9.69980149E-04 9.59980642E-04 1.32109308E-02
11  9 2.16662815E-03 5.15710859E-03 3.15043071E-03 2.63523438E-04 2.23263180E-03
11 10 1.99084952E-02-9.73698342E-02-8.05618835E-02 2.27023068E-02-1.34246485E-02
11 11-1.24478863E-02 6.36196113E-03 2.72413027E-03 1.24344869E-03 9.98022252E-05
11 12-1.11180174E-04-1.15219185E-04 3.76035893E-03-7.06103894E-04-1.41635688E-03
12  1-3.78324987E-02-4.88201122E-03 2.47939289E-03 1.10397245E-02-3.81466237E-02
12  2-3.55770058E-02 4.22821241E-02 3.84660429E-02-1.08439802E-02-2.73869912E-01
12  3 7.71241132E-02 7.78789600E-01 7.85852947E-02-7.15642315E-02-1.73851561E-01
12  4 4.29399336E-02-3.37352537E-02 2.78266990E-02-5.96247020E-03 5.97443285E-03
12  5-1.55396311E-03 1.85873526E-02 2.72990304E-02-1.55415084E-02 5.66211374E-02
12  6 6.58575639E-02-1.70412877E-01-3.13210230E-03-8.33039555E-03 2.19123183E-02
12  7 3.52122172E-04 6.59827707E-04 9.26792222E-04 2.70733504E-03 8.50888382E-04
12  8 1.99396731E-03-6.95119676E-04-4.99653511E-05 3.00331142E-04-1.89257461E-02
12  9-3.30064895E-03-7.18202965E-03 5.78102701E-03 3.64397939E-04 3.04286602E-03
12 10 9.49967072E-02-7.58310462E-02-4.21326382E-01-1.59156828E-02 2.39085840E-02
12 11 1.07876197E-02 7.07661936E-05-1.43351574E-03-8.80208275E-03-1.35082154E-03
12 12-4.90031781E-04 5.25652493E-04 3.72109368E-03-2.74035127E-03-3.49319593E-03
13  1 5.09943631E-02 3.83144564E-03-8.49064387E-03-5.23874698E-02 4.62523480E-02
13  2 1.97734852E-02-8.01579892E-02-4.93656058E-02-5.72771059E-02-9.85026342E-02
13  3 1.46132709E-01 7.85852947E-02 3.51158426E-01-1.68858004E-01-1.21632300E-01
13  4-1.27642931E-01 2.79333563E-02 4.29130827E-02 5.22594613E-03-1.22005482E-02
13  5 2.12810791E-02-1.75025899E-03 3.45890570E-03 3.90959245E-03 1.25521642E-03
13  6-6.12462803E-03-1.49142656E-02-5.98087306E-04-6.40045419E-03 3.68682897E-03
13  7-1.51823527E-03-1.83961934E-04-1.65606158E-03-5.65777700E-03-2.18625625E-03
13  8-3.58026339E-03 3.33569602E-03 2.06898795E-03-2.25931746E-04 7.75207182E-03
13  9 1.73842186E-03 3.20548017E-03 3.22619345E-03 6.31820585E-04 2.60937572E-03
13 10-6.31605195E-03 2.94675623E-03-7.16244634E-03-5.35032018E-02 5.71236986E-03
13 11 1.19688612E-02 4.76058655E-03 5.09736103E-03 2.59217102E-02 7.93352245E-04
13 12-6.60051172E-04 6.33249858E-04-4.67548883E-04 1.74179039E-04 4.50122706E-04
14  1-1.16100075E-01-9.34700125E-03-7.47908455E-03 2.94421457E-02-6.27312660E-02
14  2-7.04560750E-02 8.19832205E-02 6.75207975E-02 6.28777003E-02 8.17024981E-02
14  3-3.61098349E-01-7.15642315E-02-1.68858004E-01 8.06273637E-01-1.51799378E-01
14  4 9.04119289E-02-1.29488286E-01 3.10473466E-02-1.78262214E-02 1.24632101E-02
14  5 3.02884305E-02-2.17634803E-04 1.31081049E-03-1.13359799E-03 3.03741186E-02
14  6-3.66163926E-02 1.46544663E-02-4.32708583E-03 2.74366205E-03 6.94596921E-04
14  7 2.86924915E-03 3.85782598E-04 1.86322805E-03 8.77740998E-03 2.71745008E-03
14  8 4.93847812E-03 1.36121767E-03 5.16328975E-04 8.89868520E-04-1.14212021E-02
14  9-1.73761620E-03-4.22723167E-03-4.86564471E-03-2.32960600E-04-4.14411551E-03
14 10 1.03112789E-02 1.28814978E-03 7.25491647E-03-7.37015829E-03-2.84436505E-01
14 11 1.92790238E-01-6.34782212E-03-3.66524161E-03-3.88273646E-02-1.15354582E-03
14 12-6.32274444E-03 3.46942147E-03 1.25370981E-03 4.56128682E-04-1.13696638E-03
15  1-1.40709032E-01-1.09767264E-02-9.58617206E-03 3.73095407E-02-6.42549187E-02
15  2-6.22026378E-02 6.21768963E-02 5.47963066E-02 4.84784756E-02-3.70420700E-02
15  3 1.44627879E-02-1.73851561E-01-1.21632300E-01-1.51799378E-01 8.32764826E-01
15  4 1.65953503E-01-3.91172025E-02-3.62171457E-01-8.84721142E-03 8.86226252E-03
15  5-3.89007893E-02 1.56165188E-03-6.48233610E-03-7.89570593E-04-1.19496418E-02
15  6 1.07096543E-02 2.13062041E-02 2.38981648E-03 9.24928610E-03-3.99518091E-03
15  7 4.98862300E-03-4.03278226E-04 2.72330257E-03 1.22802196E-02 4.11781977E-03
15  8 5.71036297E-03 1.42568632E-03 1.31101515E-03-1.93241338E-05-8.42202049E-03
15  9-6.17847636E-04-3.12258858E-03-3.39842368E-03 2.32009540E-04-1.99543137E-03
15 10 3.06163814E-02-3.38041327E-02 5.90275898E-03 2.58312987E-02 2.02515423E-01
15 11-2.59204680E-01-1.38351035E-02 1.14460201E-03-1.27064006E-03 6.44480090E-04
15 12 8.83051762E-04 1.94090773E-04 6.56455512E-04-8.29949284E-04 3.06839538E-05
16  1 1.24065966E-01 1.32581133E-02 6.70101175E-04-7.94858546E-02 7.14406630E-02
16  2 6.55806543E-02-5.29509132E-02-5.89688711E-02-4.12115389E-02 6.15565348E-02
16  3-2.24179461E-02 4.29399336E-02-1.27642931E-01 9.04119289E-02 1.65953503E-01
16  4 3.30875468E-01-2.52341250E-01-3.08744123E-01-9.86467588E-02 1.55657843E-03
16  5 4.73227798E-02 1.97274767E-02-8.51300103E-03-1.21926980E-02-1.81663464E-02
16  6 4.79761908E-03-1.07916282E-02 3.19437829E-03-4.93629590E-03 1.61408190E-03
16  7-6.52280678E-03 1.25285863E-03-2.99143241E-03-1.93866946E-02-6.44495375E-03
16  8-1.00547669E-02-8.75107419E-04-9.39474838E-04-1.15504135E-03 7.67986717E-03
16  9 3.20932355E-04 2.39110339E-03 2.66325636E-03-9.45071593E-04 9.05203682E-04
16 10 3.40998116E-04 5.62206711E-03 1.51930044E-03 5.00088739E-03 3.69990098E-03
16 11 1.94290802E-03-1.60552710E-01 1.75593615E-01 4.19132815E-02 4.82057417E-04
16 12-1.54881510E-02 7.18766410E-03 8.64510242E-03 3.04198662E-03 7.20020681E-03
17  1 8.81320451E-02-3.57718459E-02 3.20766037E-03-3.46773407E-02 3.47944717E-02
17  2 3.57090236E-02-2.73322902E-02-3.67865587E-02-2.93230892E-02 5.28556844E-02
17  3-2.39608500E-02-3.37352537E-02 2.79333563E-02-1.29488286E-01-3.91172025E-02
17  4-2.52341250E-01 7.87689454E-01-1.64959572E-02-3.15690641E-02-2.27900435E-01
17  5 8.89378178E-02-6.55621663E-03-4.49907361E-02 2.16696398E-02-5.58274006E-03
17  6 6.52333651E-03-3.74216835E-03 7.29291651E-04-2.46096343E-03 2.08282942E-03
17  7-1.53845482E-02-4.29693158E-04-8.69823427E-03-2.04287129E-04 5.17271400E-04
17  8-5.65951847E-04 4.53224525E-04 3.91896752E-04-7.17727860E-04 5.79120402E-03
17  9 1.45457689E-03 1.51594188E-03 1.83730966E-03 9.16282790E-05 2.36847782E-03
17 10 4.49378477E-03-5.92619339E-03 1.20646284E-03-6.30214401E-03 1.35918290E-02
17 11 3.13763287E-02 1.92108816E-01-3.43849368E-01-4.46327455E-02 6.14839711E-03
17 12 9.71931112E-03-8.73005117E-03-5.32727981E-04-3.20893785E-03-2.31628220E-03
18  1 1.81857476E-01 1.44822246E-02-3.61300829E-02-7.62315857E-02 8.09834068E-02
18  2 8.22997183E-02-8.32985411E-02-8.72207290E-02-7.33376995E-02 1.34552232E-01
18  3-6.59817788E-02 2.78266990E-02 4.29130827E-02 3.10473466E-02-3.62171457E-01
18  4-3.08744123E-01-1.64959572E-02 6.48513809E-01 8.31813733E-02 8.49628408E-02
18  5-1.71827546E-01-7.31604997E-03 3.54833887E-03 1.25875803E-02-1.30382692E-02
18  6 1.19199780E-05-1.10231516E-02 2.14937737E-03-1.71226759E-03 1.52559451E-03
18  7-9.58983223E-03 5.57803381E-04-5.53270678E-03-3.00003209E-02-9.32589604E-03
18  8-1.50006938E-02 5.59400467E-04 1.41959768E-03-1.80969024E-03 1.32983001E-02
18  9 3.20494421E-03 4.49411102E-03 5.00793365E-03 7.66878937E-04 4.92839303E-03
18 10-5.49354405E-03-8.33995087E-04-9.11592046E-04 2.02397696E-03-1.74182751E-02
18 11-1.56787086E-02 5.78047277E-02-4.82000114E-02-8.07973504E-02 5.67744640E-03
18 12 2.89784226E-02-9.05214623E-03 4.68744661E-03-2.77523776E-03 1.09534517E-03
19  1-3.17654593E-02-1.54472521E-02 1.25915779E-03 7.29676600E-03-8.05770605E-03
19  2-7.52038343E-03 7.16592230E-03 8.68462654E-03 5.91636097E-03-1.35317989E-02
19  3 1.77776308E-03-5.96247020E-03 5.22594613E-03-1.78262214E-02-8.84721142E-03
19  4-9.86467588E-02-3.15690641E-02 8.31813733E-02 3.79117563E-01-1.25368884E-01
19  5-3.06318574E-01-1.21764769E-01 1.24460957E-01 7.20827244E-02 5.26730831E-03
19  6 2.53207998E-02 3.34425301E-03-2.85519962E-03-6.68445088E-04 5.32356939E-03
19  7-3.66089235E-04-3.29600551E-04-2.62450513E-04-1.22165965E-03-3.23811399E-03
19  8 1.32486637E-03 4.79285452E-04-6.70044756E-05 3.59166720E-04-1.58052266E-03
19  9-1.87422654E-04-1.48862111E-04-3.54877176E-04-9.40803436E-05-4.44062608E-04
19 10 6.19120310E-04-2.41459279E-04-1.27721478E-04 6.98713418E-03 2.06784921E-03
19 11 1.63293801E-03 6.90503247E-03 1.56385059E-02-1.60681378E-02-1.56788634E-01
19 12 3.94390021E-02 1.73194563E-01 9.81118143E-03-1.42942878E-02-1.91890989E-03
20  1-3.06545872E-02-9.23634430E-03-5.25582610E-03 6.09379303E-03-6.51954210E-03
20  2-4.40833010E-03 1.57621059E-03 5.04673333E-03-7.94607636E-04 5.30724085E-03
20  3-2.31897209E-03 5.97443285E-03-1.22005482E-02 1.24632101E-02 8.86226252E-03
20  4 1.55657843E-03-2.27900435E-01 8.49628408E-02-1.25368884E-01 1.07858243E+00
20  5 1.41919979E-01 1.01245809E-01-7.06817496E-01-1.33105045E-01 2.10980701E-02
20  6-1.59130722E-02-3.63659444E-02-5.72058252E-03 1.21579180E-02 7.62965513E-03
20  7 8.77574667E-04-4.49002060E-04 3.22237032E-04-9.21604431E-05-3.62026210E-04
20  8 1.81045072E-03 4.37457790E-04-5.08910548E-05 3.38704660E-04-3.59502150E-04
20  9 1.55321795E-04 1.41219452E-04 6.12995090E-04 4.20674394E-05 8.77088452E-04
20 10-1.16244896E-03-1.53067285E-03 4.32903668E-04-1.11816032E-06-1.89218804E-03
20 11-4.26162141E-03-1.88274316E-02-1.92404183E-02 2.07163023E-02 4.20171334E-02
20 12-9.68536456E-02-7.49155311E-02 1.35637799E-02-1.93634753E-02-1.48808777E-02
21  1-2.60660261E-03-4.46199652E-03 4.08693033E-03 7.94937111E-04 3.36379033E-04
21  2-1.51868264E-03 1.17091624E-03 3.34186962E-03 3.31135800E-03-1.13112183E-02
21  3 1.04552159E-03-1.55396311E-03 2.12810791E-02 3.02884305E-02-3.89007893E-02
21  4 4.73227798E-02 8.89378178E-02-1.71827546E-01-3.06318574E-01 1.41919979E-01
21  5 7.34877200E-01 7.38937153E-02-1.62364663E-01-1.83101773E-01 6.53326005E-03
21  6-4.48947436E-02 1.46422958E-03 5.30928888E-03 2.26467223E-03-8.03659693E-03
21  7-1.00684538E-03 2.36433770E-04-4.78322841E-04-3.06857678E-03-2.03238214E-03
21  8 1.04527809E-03 4.20218959E-05-2.65338038E-04 4.24190977E-04-1.22622633E-03
21  9-7.55964271E-04-1.28228249E-04-6.65511148E-04-8.59189310E-05-1.03647109E-03
21 10-7.71646549E-04 6.35443784E-04 1.36175340E-04 3.62230732E-03-1.11321532E-03
21 11-4.77419321E-03-4.42723493E-04-8.10368255E-03 6.96026866E-03 1.71503032E-01
21 12-6.96102268E-02-3.53174648E-01-4.05533264E-03 2.46823488E-02 1.22253624E-02
22  1-7.31354932E-03-1.22852110E-03-1.30573111E-03 2.18390966E-03-3.22036143E-03
22  2-2.42144496E-03 3.34526531E-03 4.64235230E-03 1.77362115E-04 6.08803985E-03
22  3 1.37643934E-03 1.85873526E-02-1.75025899E-03-2.17634803E-04 1.56165188E-03
22  4 1.97274767E-02-6.55621663E-03-7.31604997E-03-1.21764769E-01 1.01245809E-01
22  5 7.38937153E-02 3.16568803E-01-4.22941834E-02-2.74869675E-01-1.42161504E-01
22  6 1.61048165E-03 8.27524038E-02 9.59637643E-03 1.97643223E-02 2.13296162E-02
22  7 2.38948724E-04-2.02060076E-04 2.62937375E-04-1.20046804E-04-3.70039511E-04
22  8 6.12239027E-04 9.28397007E-05 1.89236198E-05 5.67670102E-05-8.50752764E-04
22  9-2.75790227E-04 9.27670291E-05 4.33745515E-04-8.52706332E-05 4.65793817E-04
22 10 8.11000016E-04-1.87336942E-03 7.32999494E-04-7.21219326E-04-5.50446468E-04
22 11-6.75561116E-04-1.07337630E-03-1.65777086E-03 2.20476096E-03 9.38792819E-03
22 12 2.13766406E-02 4.63446780E-03-9.27194465E-02-9.15045293E-02 7.92232310E-02
23  1 1.00923488E-02 3.10960624E-04 2.67444496E-03-2.42580168E-03 2.83997820E-03
23  2 1.66464433E-03-1.25505406E-04-1.61322695E-03-8.25276486E-04-1.56327173E-02
23  3 9.12128022E-03 2.72990304E-02 3.45890570E-03 1.31081049E-03-6.48233610E-03
23  4-8.51300103E-03-4.49907361E-02 3.54833887E-03 1.24460957E-01-7.06817496E-01
23  5-1.62364663E-01-4.22941834E-02 1.21122186E+00 1.91013392E-03-4.04230722E-03
23  6-1.21598961E-01 8.35958840E-03 3.66703270E-02-2.86173921E-02-5.98528972E-02
23  7-8.99219745E-04 1.34594940E-04-1.60217493E-04 8.44322909E-05-1.79262524E-04
23  8 1.81650209E-04-1.72151694E-04 1.38328612E-04-1.73463861E-06-4.29557412E-04
23  9-1.30438086E-04-4.13217119E-04 9.37643026E-05 1.78849365E-04-2.66019678E-04
23 10-1.10219218E-03-5.50161144E-03 2.25572052E-03-1.60901917E-04 6.28595859E-04
23 11-4.48397787E-04-9.78554085E-05-8.84444266E-04 3.31027144E-03-2.82661336E-03
23 12-1.25810449E-03 7.24510990E-03-9.61382787E-02-3.14293312E-01 1.72365733E-01
24  1 7.58179787E-04 1.64146247E-04 9.83766357E-04 3.12192580E-04-6.23055684E-04
24  2 7.29806510E-06 1.57411255E-03 9.77466752E-04 7.44300765E-04 9.42209891E-03
24  3-1.97513474E-03-1.55415084E-02 3.90959245E-03-1.13359799E-03-7.89570593E-04
24  4-1.21926980E-02 2.16696398E-02 1.25875803E-02 7.20827244E-02-1.33105045E-01
24  5-1.83101773E-01-2.74869675E-01 1.91013392E-03 6.21174936E-01 8.42512300E-02
24  6 8.58505126E-03-2.34158683E-01 2.12687736E-02-3.56877322E-02-1.06653346E-02
24  7-2.35309262E-04-1.99337369E-04 1.41010545E-04 6.35241469E-04-6.77932560E-05
24  8 4.42365800E-04-1.11969533E-04 7.59902668E-05 6.99264169E-05 2.02019534E-04
24  9 1.51400241E-04-3.27845871E-04-9.96278425E-05-2.27548011E-05 7.19881840E-05
24 10 1.92819676E-03 2.23672159E-03 3.74096654E-04 8.72002652E-04-3.10382102E-04
24 11 1.01681987E-03 2.68219377E-03 3.91637748E-03-2.86050383E-03 8.28121565E-03
24 12-3.57135011E-02 4.28756558E-03 7.93300018E-02 1.69150849E-01-1.94456638E-01
25  1 1.17453221E-02-6.67481719E-04-4.73730463E-04-3.13664589E-03 8.89372277E-03
25  2 6.92536658E-03-2.51145504E-02-2.05181552E-02-6.66566776E-03-8.95480780E-02
25  3-5.17929597E-02 5.66211374E-02 1.25521642E-03 3.03741186E-02-1.19496418E-02
25  4-1.81663464E-02-5.58274006E-03-1.30382692E-02 5.26730831E-03 2.10980701E-02
25  5 6.53326005E-03-1.42161504E-01-4.04230722E-03 8.42512300E-02 3.64477189E-01
25  6-1.34718085E-01-2.13445488E-01-1.10720181E-01 1.57106747E-01 6.91909529E-02
25  7-9.03247424E-04 3.66385690E-05-1.75795239E-04-7.37398711E-04-4.99651671E-04
25  8-5.55970211E-05 9.36817045E-05-2.48374610E-05 6.05719784E-04-2.50257720E-03
25  9-3.86452152E-03-2.69284342E-04-1.89322869E-04 3.47382138E-04-3.15862180E-04
25 10-1.72592995E-03-8.65954198E-03 2.22255829E-03 2.03144106E-03 7.57383768E-03
25 11 4.47404507E-03-2.17521511E-04-5.71649833E-04 6.65921970E-04 1.21225891E-02
25 12-6.05706603E-04 8.31951318E-03-1.86860377E-03 6.11694997E-03 6.58084247E-03
26  1 4.23409802E-04-7.10977292E-04-7.23890240E-04-1.57252091E-03 4.06989850E-03
26  2 5.51170011E-03-2.44517607E-02-1.29704911E-02-8.82326294E-03-1.28145207E-02
26  3-1.82260437E-01 6.58575639E-02-6.12462803E-03-3.66163926E-02 1.07096543E-02
26  4 4.79761908E-03 6.52333651E-03 1.19199780E-05 2.53207998E-02-1.59130722E-02
26  5-4.48947436E-02 1.61048165E-03-1.21598961E-01 8.58505126E-03-1.34718085E-01
26  6 1.20314556E+00 1.87636452E-01 1.59849012E-01-8.61918895E-01-2.43322784E-01
26  7 4.98411935E-04-3.63584322E-04 3.31912090E-04 8.13680308E-04 5.13540032E-04
26  8 7.22932950E-07-6.35737772E-05-2.15044891E-04-1.32712865E-04 2.00766348E-03
26  9 7.86887980E-04 2.20959638E-03 4.66088254E-04 2.11885270E-05 1.04883957E-03
26 10 5.16640107E-04 1.13144015E-02-9.53418820E-03 1.78708941E-04-1.10090775E-03
26 11-8.75667711E-04-2.72773702E-04 3.70608974E-04 8.38101078E-04-2.20887035E-04
26 12-5.43171731E-03 1.03177724E-03-1.62446438E-02 1.23550091E-02 2.45346326E-02
27  1 7.26961594E-03 1.47204658E-04-3.91929168E-03-2.59821186E-03 4.83211192E-03
27  2 2.69486429E-03-6.91028089E-03-1.18722185E-02 4.20368756E-04 5.87370265E-02
27  3 5.30370196E-02-1.70412877E-01-1.49142656E-02 1.46544663E-02 2.13062041E-02
27  4-1.07916282E-02-3.74216835E-03-1.10231516E-02 3.34425301E-03-3.63659444E-02
27  5 1.46422958E-03 8.27524038E-02 8.35958840E-03-2.34158683E-01-2.13445488E-01
27  6 1.87636452E-01 5.89001209E-01 6.80609191E-02-2.42162159E-01-1.75335621E-01
27  7-4.43297884E-04 6.71544838E-04-6.15584155E-04-2.59052282E-03-1.13580642E-03
27  8-1.13707271E-03 3.71952899E-04-1.58570632E-04 1.34469850E-06-1.92093076E-03
27  9-1.57790739E-03 1.39212218E-03-3.89610971E-04 8.66018067E-05-4.99029324E-04
27 10 7.77161640E-03 3.31130937E-02-1.17497739E-02 6.44489288E-03-7.34490860E-04
27 11-5.17824951E-04 1.39701495E-03 2.02866979E-03-1.59787872E-03 8.97806924E-03
27 12 3.45828939E-03 2.47818171E-03 8.87531889E-03-1.02752216E-02-7.79116534E-03
28  1-2.23611339E-03 2.29287130E-04-5.09024201E-04 1.84407424E-04-1.27914340E-03
28  2-5.79289289E-04 5.39047868E-04 1.27747244E-04-4.90344144E-04 2.17885292E-02
28  3-7.31701776E-03-3.13210230E-03-5.98087306E-04-4.32708583E-03 2.38981648E-03
28  4 3.19437829E-03 7.29291651E-04 2.14937737E-03-2.85519962E-03-5.72058252E-03
28  5 5.30928888E-03 9.59637643E-03 3.66703270E-02 2.12687736E-02-1.10720181E-01
28  6 1.59849012E-01 6.80609191E-02 8.24079520E-02-1.79019968E-01-8.87092232E-02
28  7 2.82704380E-04-1.17947183E-05 4.15868992E-05-3.05119120E-05 5.24534463E-06
28  8-8.42853802E-05 8.54357919E-05-5.16231402E-05-1.56022438E-04 2.49856677E-05
28  9 2.52380832E-04 5.17257355E-04 2.41406492E-04 1.00488204E-04 2.71173569E-04
28 10-9.07726150E-04 4.85385150E-04-9.54413511E-04 1.71973700E-04-1.21718405E-03
28 11-8.67639390E-04 8.58986225E-05 2.06047409E-04-3.36734243E-04-1.81298286E-03
28 12 1.25929846E-03-1.42633654E-03 5.58093264E-04-9.69810342E-04-2.76428275E-03
29  1 3.12108839E-03 5.16223259E-04 1.03511979E-03-1.28230722E-03 5.18296105E-04
29  2-6.01249126E-04 6.27417803E-03-6.54880642E-05 2.42655994E-03 2.03632953E-03
29  3-7.25514068E-02-8.33039555E-03-6.40045419E-03 2.74366205E-03 9.24928610E-03
29  4-4.93629590E-03-2.46096343E-03-1.71226759E-03-6.68445088E-04 1.21579180E-02
29  5 2.26467223E-03 1.97643223E-02-2.86173921E-02-3.56877322E-02 1.57106747E-01
29  6-8.61918895E-01-2.42162159E-01-1.79019968E-01 9.47661272E-01 2.76332796E-01
29  7-3.16645879E-04 1.78129083E-04-2.25780476E-04-4.56803442E-04-2.90760105E-04
29  8-2.11468355E-04 1.56257290E-04 2.61308778E-04-1.57786693E-06-4.72301607E-04
29  9-1.89425132E-04-3.45526897E-04-1.98495256E-04 3.29896476E-05-4.23893644E-04
29 10 1.72304400E-03 3.70822787E-03-1.89277158E-03 2.59801536E-03-1.33037159E-03
29 11-3.35936445E-04 5.63094681E-04 3.82150352E-04-2.72663107E-05 6.60519594E-04